p cnf 386 460
-9 3 -15 21 22 0
-9 3 -15 21 -22 0
-9 3 -15 -21 23 0
-9 3 -15 -21 -23 0
-12 -4 -15 24 25 0
-12 -4 -15 24 -25 0
-12 -4 -15 -24 26 0
-12 -4 -15 -24 -26 0
6 14 -17 27 28 0
6 14 -17 27 -28 0
6 14 -17 -27 29 0
6 14 -17 -27 -29 0
10 16 11 30 31 0
10 16 11 30 -31 0
10 16 11 -30 32 0
10 16 11 -30 -32 0
-15 20 -7 33 34 0
-15 20 -7 33 -34 0
-15 20 -7 -33 35 0
-15 20 -7 -33 -35 0
-1 10 16 36 37 0
-1 10 16 36 -37 0
-1 10 16 -36 38 0
-1 10 16 -36 -38 0
13 17 -7 39 40 0
13 17 -7 39 -40 0
13 17 -7 -39 41 0
13 17 -7 -39 -41 0
-2 -14 -13 42 43 0
-2 -14 -13 42 -43 0
-2 -14 -13 -42 44 0
-2 -14 -13 -42 -44 0
13 -6 15 45 46 0
13 -6 15 45 -46 0
13 -6 15 -45 47 0
13 -6 15 -45 -47 0
-9 3 16 48 49 0
-9 3 16 48 -49 0
-9 3 16 -48 50 0
-9 3 16 -48 -50 0
-20 -13 4 51 52 0
-20 -13 4 51 -52 0
-20 -13 4 -51 53 0
-20 -13 4 -51 -53 0
-7 15 -14 54 55 0
-7 15 -14 54 -55 0
-7 15 -14 -54 56 0
-7 15 -14 -54 -56 0
-15 -16 6 57 58 0
-15 -16 6 57 -58 0
-15 -16 6 -57 59 0
-15 -16 6 -57 -59 0
5 -18 20 60 61 0
5 -18 20 60 -61 0
5 -18 20 -60 62 0
5 -18 20 -60 -62 0
-16 -19 7 63 64 0
-16 -19 7 63 -64 0
-16 -19 7 -63 65 0
-16 -19 7 -63 -65 0
20 -18 -2 66 67 0
20 -18 -2 66 -67 0
20 -18 -2 -66 68 0
20 -18 -2 -66 -68 0
10 -19 -14 69 70 0
10 -19 -14 69 -70 0
10 -19 -14 -69 71 0
10 -19 -14 -69 -71 0
16 -7 12 72 73 0
16 -7 12 72 -73 0
16 -7 12 -72 74 0
16 -7 12 -72 -74 0
6 -5 -1 75 76 0
6 -5 -1 75 -76 0
6 -5 -1 -75 77 0
6 -5 -1 -75 -77 0
-9 11 15 78 79 0
-9 11 15 78 -79 0
-9 11 15 -78 80 0
-9 11 15 -78 -80 0
19 -6 7 81 82 0
19 -6 7 81 -82 0
19 -6 7 -81 83 0
19 -6 7 -81 -83 0
-11 17 -19 84 85 0
-11 17 -19 84 -85 0
-11 17 -19 -84 86 0
-11 17 -19 -84 -86 0
9 -16 6 87 88 0
9 -16 6 87 -88 0
9 -16 6 -87 89 0
9 -16 6 -87 -89 0
15 -20 10 90 91 0
15 -20 10 90 -91 0
15 -20 10 -90 92 0
15 -20 10 -90 -92 0
9 -1 -11 93 94 0
9 -1 -11 93 -94 0
9 -1 -11 -93 95 0
9 -1 -11 -93 -95 0
-8 -19 5 96 97 0
-8 -19 5 96 -97 0
-8 -19 5 -96 98 0
-8 -19 5 -96 -98 0
-19 11 20 99 100 0
-19 11 20 99 -100 0
-19 11 20 -99 101 0
-19 11 20 -99 -101 0
-12 13 -3 102 103 0
-12 13 -3 102 -103 0
-12 13 -3 -102 104 0
-12 13 -3 -102 -104 0
-7 -17 -19 105 106 0
-7 -17 -19 105 -106 0
-7 -17 -19 -105 107 0
-7 -17 -19 -105 -107 0
17 6 -11 108 109 0
17 6 -11 108 -109 0
17 6 -11 -108 110 0
17 6 -11 -108 -110 0
-7 -17 10 111 112 0
-7 -17 10 111 -112 0
-7 -17 10 -111 113 0
-7 -17 10 -111 -113 0
-14 9 20 114 115 0
-14 9 20 114 -115 0
-14 9 20 -114 116 0
-14 9 20 -114 -116 0
1 -18 -16 117 118 0
1 -18 -16 117 -118 0
1 -18 -16 -117 119 0
1 -18 -16 -117 -119 0
-2 -15 20 120 121 0
-2 -15 20 120 -121 0
-2 -15 20 -120 122 0
-2 -15 20 -120 -122 0
14 18 -1 123 124 0
14 18 -1 123 -124 0
14 18 -1 -123 125 0
14 18 -1 -123 -125 0
-8 -4 1 126 127 0
-8 -4 1 126 -127 0
-8 -4 1 -126 128 0
-8 -4 1 -126 -128 0
13 3 -9 129 130 0
13 3 -9 129 -130 0
13 3 -9 -129 131 0
13 3 -9 -129 -131 0
5 7 8 132 133 0
5 7 8 132 -133 0
5 7 8 -132 134 0
5 7 8 -132 -134 0
9 4 -20 135 136 0
9 4 -20 135 -136 0
9 4 -20 -135 137 0
9 4 -20 -135 -137 0
-18 -15 -10 138 139 0
-18 -15 -10 138 -139 0
-18 -15 -10 -138 140 0
-18 -15 -10 -138 -140 0
10 3 -20 141 142 0
10 3 -20 141 -142 0
10 3 -20 -141 143 0
10 3 -20 -141 -143 0
20 -14 16 144 145 0
20 -14 16 144 -145 0
20 -14 16 -144 146 0
20 -14 16 -144 -146 0
20 -3 -11 147 148 0
20 -3 -11 147 -148 0
20 -3 -11 -147 149 0
20 -3 -11 -147 -149 0
-12 19 -16 150 151 0
-12 19 -16 150 -151 0
-12 19 -16 -150 152 0
-12 19 -16 -150 -152 0
-3 5 10 153 154 0
-3 5 10 153 -154 0
-3 5 10 -153 155 0
-3 5 10 -153 -155 0
8 13 -7 156 157 0
8 13 -7 156 -157 0
8 13 -7 -156 158 0
8 13 -7 -156 -158 0
-2 -15 10 159 160 0
-2 -15 10 159 -160 0
-2 -15 10 -159 161 0
-2 -15 10 -159 -161 0
-3 9 16 162 163 0
-3 9 16 162 -163 0
-3 9 16 -162 164 0
-3 9 16 -162 -164 0
-12 -16 -18 165 166 0
-12 -16 -18 165 -166 0
-12 -16 -18 -165 167 0
-12 -16 -18 -165 -167 0
3 1 -12 168 169 0
3 1 -12 168 -169 0
3 1 -12 -168 170 0
3 1 -12 -168 -170 0
-18 13 5 171 172 0
-18 13 5 171 -172 0
-18 13 5 -171 173 0
-18 13 5 -171 -173 0
1 3 -19 174 175 0
1 3 -19 174 -175 0
1 3 -19 -174 176 0
1 3 -19 -174 -176 0
-19 -5 6 177 178 0
-19 -5 6 177 -178 0
-19 -5 6 -177 179 0
-19 -5 6 -177 -179 0
-20 8 -2 180 181 0
-20 8 -2 180 -181 0
-20 8 -2 -180 182 0
-20 8 -2 -180 -182 0
17 -8 -13 183 184 0
17 -8 -13 183 -184 0
17 -8 -13 -183 185 0
17 -8 -13 -183 -185 0
7 -11 -12 186 187 0
7 -11 -12 186 -187 0
7 -11 -12 -186 188 0
7 -11 -12 -186 -188 0
-10 -14 -20 189 190 0
-10 -14 -20 189 -190 0
-10 -14 -20 -189 191 0
-10 -14 -20 -189 -191 0
-1 16 -12 192 193 0
-1 16 -12 192 -193 0
-1 16 -12 -192 194 0
-1 16 -12 -192 -194 0
5 -3 9 195 196 0
5 -3 9 195 -196 0
5 -3 9 -195 197 0
5 -3 9 -195 -197 0
-18 8 14 198 199 0
-18 8 14 198 -199 0
-18 8 14 -198 200 0
-18 8 14 -198 -200 0
1 16 12 201 202 0
1 16 12 201 -202 0
1 16 12 -201 203 0
1 16 12 -201 -203 0
20 -1 -16 204 205 0
20 -1 -16 204 -205 0
20 -1 -16 -204 206 0
20 -1 -16 -204 -206 0
5 10 -13 207 208 0
5 10 -13 207 -208 0
5 10 -13 -207 209 0
5 10 -13 -207 -209 0
9 -10 6 210 211 0
9 -10 6 210 -211 0
9 -10 6 -210 212 0
9 -10 6 -210 -212 0
-12 10 -14 213 214 0
-12 10 -14 213 -214 0
-12 10 -14 -213 215 0
-12 10 -14 -213 -215 0
-13 1 4 216 217 0
-13 1 4 216 -217 0
-13 1 4 -216 218 0
-13 1 4 -216 -218 0
-20 -7 3 219 220 0
-20 -7 3 219 -220 0
-20 -7 3 -219 221 0
-20 -7 3 -219 -221 0
12 1 -10 222 223 0
12 1 -10 222 -223 0
12 1 -10 -222 224 0
12 1 -10 -222 -224 0
-1 -16 7 225 226 0
-1 -16 7 225 -226 0
-1 -16 7 -225 227 0
-1 -16 7 -225 -227 0
11 -6 -4 228 229 0
11 -6 -4 228 -229 0
11 -6 -4 -228 230 0
11 -6 -4 -228 -230 0
1 16 -20 231 232 0
1 16 -20 231 -232 0
1 16 -20 -231 233 0
1 16 -20 -231 -233 0
9 7 15 234 235 0
9 7 15 234 -235 0
9 7 15 -234 236 0
9 7 15 -234 -236 0
-6 17 10 237 238 0
-6 17 10 237 -238 0
-6 17 10 -237 239 0
-6 17 10 -237 -239 0
8 9 17 240 241 0
8 9 17 240 -241 0
8 9 17 -240 242 0
8 9 17 -240 -242 0
18 11 10 243 244 0
18 11 10 243 -244 0
18 11 10 -243 245 0
18 11 10 -243 -245 0
7 1 -8 246 247 0
7 1 -8 246 -247 0
7 1 -8 -246 248 0
7 1 -8 -246 -248 0
-5 -12 18 249 250 0
-5 -12 18 249 -250 0
-5 -12 18 -249 251 0
-5 -12 18 -249 -251 0
-6 2 15 252 253 0
-6 2 15 252 -253 0
-6 2 15 -252 254 0
-6 2 15 -252 -254 0
2 18 1 255 256 0
2 18 1 255 -256 0
2 18 1 -255 257 0
2 18 1 -255 -257 0
-7 -13 16 258 259 0
-7 -13 16 258 -259 0
-7 -13 16 -258 260 0
-7 -13 16 -258 -260 0
18 19 9 261 262 0
18 19 9 261 -262 0
18 19 9 -261 263 0
18 19 9 -261 -263 0
9 -14 18 264 265 0
9 -14 18 264 -265 0
9 -14 18 -264 266 0
9 -14 18 -264 -266 0
14 12 -5 267 268 0
14 12 -5 267 -268 0
14 12 -5 -267 269 0
14 12 -5 -267 -269 0
-13 -7 -14 270 271 0
-13 -7 -14 270 -271 0
-13 -7 -14 -270 272 0
-13 -7 -14 -270 -272 0
-1 8 -16 273 274 0
-1 8 -16 273 -274 0
-1 8 -16 -273 275 0
-1 8 -16 -273 -275 0
-11 4 7 276 277 0
-11 4 7 276 -277 0
-11 4 7 -276 278 0
-11 4 7 -276 -278 0
-4 20 5 279 280 0
-4 20 5 279 -280 0
-4 20 5 -279 281 0
-4 20 5 -279 -281 0
-5 2 12 282 283 0
-5 2 12 282 -283 0
-5 2 12 -282 284 0
-5 2 12 -282 -284 0
-5 13 -18 285 286 0
-5 13 -18 285 -286 0
-5 13 -18 -285 287 0
-5 13 -18 -285 -287 0
-18 9 1 288 289 0
-18 9 1 288 -289 0
-18 9 1 -288 290 0
-18 9 1 -288 -290 0
10 -11 16 291 292 0
10 -11 16 291 -292 0
10 -11 16 -291 293 0
10 -11 16 -291 -293 0
294 295 297 301 309 0
294 295 297 301 -309 0
294 295 297 -301 310 0
294 295 297 -301 -310 0
294 295 -297 302 311 0
294 295 -297 302 -311 0
294 295 -297 -302 312 0
294 295 -297 -302 -312 0
294 -295 298 303 313 0
294 -295 298 303 -313 0
294 -295 298 -303 314 0
294 -295 298 -303 -314 0
294 -295 -298 304 315 0
294 -295 -298 304 -315 0
294 -295 -298 -304 316 0
294 -295 -298 -304 -316 0
-294 296 299 305 317 0
-294 296 299 305 -317 0
-294 296 299 -305 318 0
-294 296 299 -305 -318 0
-294 296 -299 306 319 0
-294 296 -299 306 -319 0
-294 296 -299 -306 320 0
-294 296 -299 -306 -320 0
-294 -296 300 307 321 0
-294 -296 300 307 -321 0
-294 -296 300 -307 322 0
-294 -296 300 -307 -322 0
-294 -296 -300 308 323 0
-294 -296 -300 308 -323 0
-294 -296 -300 -308 324 0
-294 -296 -300 -308 -324 0
325 326 328 332 340 0
325 326 328 332 -340 0
325 326 328 -332 341 0
325 326 328 -332 -341 0
325 326 -328 333 342 0
325 326 -328 333 -342 0
325 326 -328 -333 343 0
325 326 -328 -333 -343 0
325 -326 329 334 344 0
325 -326 329 334 -344 0
325 -326 329 -334 345 0
325 -326 329 -334 -345 0
325 -326 -329 335 346 0
325 -326 -329 335 -346 0
325 -326 -329 -335 347 0
325 -326 -329 -335 -347 0
-325 327 330 336 348 0
-325 327 330 336 -348 0
-325 327 330 -336 349 0
-325 327 330 -336 -349 0
-325 327 -330 337 350 0
-325 327 -330 337 -350 0
-325 327 -330 -337 351 0
-325 327 -330 -337 -351 0
-325 -327 331 338 352 0
-325 -327 331 338 -352 0
-325 -327 331 -338 353 0
-325 -327 331 -338 -353 0
-325 -327 -331 339 354 0
-325 -327 -331 339 -354 0
-325 -327 -331 -339 355 0
-325 -327 -331 -339 -355 0
356 357 359 363 371 0
356 357 359 363 -371 0
356 357 359 -363 372 0
356 357 359 -363 -372 0
356 357 -359 364 373 0
356 357 -359 364 -373 0
356 357 -359 -364 374 0
356 357 -359 -364 -374 0
356 -357 360 365 375 0
356 -357 360 365 -375 0
356 -357 360 -365 376 0
356 -357 360 -365 -376 0
356 -357 -360 366 377 0
356 -357 -360 366 -377 0
356 -357 -360 -366 378 0
356 -357 -360 -366 -378 0
-356 358 361 367 379 0
-356 358 361 367 -379 0
-356 358 361 -367 380 0
-356 358 361 -367 -380 0
-356 358 -361 368 381 0
-356 358 -361 368 -381 0
-356 358 -361 -368 382 0
-356 358 -361 -368 -382 0
-356 -358 362 369 383 0
-356 -358 362 369 -383 0
-356 -358 362 -369 384 0
-356 -358 362 -369 -384 0
-356 -358 -362 370 385 0
-356 -358 -362 370 -385 0
-356 -358 -362 -370 386 0
-356 -358 -362 -370 -386 0

